Maximize

342 x_0 + 208 x_1 + 310 x_2 + 341 x_3 + 52 x_4 + 179 x_5 + 323 x_6 + 360 x_7 + 420 x_8 + 126 x_9 + 449 x_10 + 80 x_11 + 146 x_12 + 146 x_13 + 122 x_14 + 423 x_15 + 63 x_16 + 454 x_17 + 397 x_18 + 203 x_19 + 437 x_20 + 54 x_21 + 482 x_22 + 274 x_23 + 435 x_24 + 343 x_25 + 471 x_26 + 30 x_27 + 238 x_28 + 447 x_29 + 81 x_30 + 122 x_31 + 237 x_32 + 56 x_33 + 421 x_34 + 360 x_35 + 176 x_36 + 307 x_37 + 194 x_38 + 121 x_39 + 52 x_40 + 303 x_41 + 471 x_42 + 185 x_43 + 444 x_44 + 107 x_45 + 485 x_46 + 116 x_47 + 90 x_48 + 189 x_49 + 162 x_50 + 414 x_51 + 437 x_52 + 230 x_53 + 154 x_54 + 499 x_55 + 367 x_56 + 372 x_57 + 109 x_58 + 266 x_59 + 412 x_60 + 368 x_61 + 204 x_62 + 422 x_63 + 335 x_64 + 239 x_65 + 12 x_66 + 249 x_67 + 395 x_68 + 353 x_69 + 56 x_70 + 231 x_71 + 252 x_72 + 355 x_73 + 254 x_74 + 243 x_75 + 210 x_76 + 239 x_77 + 472 x_78 + 218 x_79 + 96 x_80 + 266 x_81 + 246 x_82 + 416 x_83 + 111 x_84 + 371 x_85 + 26 x_86 + 365 x_87 + 174 x_88 + 393 x_89 + 278 x_90 + 94 x_91 + 245 x_92 + 440 x_93 + 310 x_94 + 200 x_95 + 389 x_96 + 61 x_97 + 379 x_98 + 152 x_99


Subject To

a0: 725 x_0 + 390 x_1 + 482 x_2 + 853 x_3 + 140 x_4 + 45 x_5 + 67 x_6 + 401 x_7 + 51 x_8 + 208 x_9 + 151 x_10 + 627 x_11 + 453 x_12 + 105 x_13 + 398 x_14 + 479 x_15 + 121 x_16 + 297 x_17 + 131 x_18 + 315 x_19 + 186 x_20 + 422 x_21 + 292 x_22 + 75 x_23 + 432 x_24 + 83 x_25 + 55 x_26 + 471 x_27 + 317 x_28 + 48 x_29 + 705 x_30 + 621 x_31 + 224 x_32 + 272 x_33 + 379 x_34 + 281 x_35 + 481 x_36 + 666 x_37 + 85 x_38 + 313 x_39 + 284 x_40 + 450 x_41 + 874 x_42 + 311 x_43 + 391 x_44 + 392 x_45 + 280 x_46 + 651 x_47 + 207 x_48 + 159 x_49 + 41 x_50 + 21 x_51 + 224 x_52 + 185 x_53 + 303 x_54 + 175 x_55 + 303 x_56 + 108 x_57 + 209 x_58 + 188 x_59 + 446 x_60 + 144 x_61 + 15 x_62 + 674 x_63 + 509 x_64 + 152 x_65 + 175 x_66 + 139 x_67 + 95 x_68 + 132 x_69 + 178 x_70 + 134 x_71 + 99 x_72 + 539 x_73 + 151 x_74 + 143 x_75 + 30 x_76 + 18 x_77 + 550 x_78 + 128 x_79 + 168 x_80 + 286 x_81 + 36 x_82 + 210 x_83 + 445 x_84 + 224 x_85 + 635 x_86 + 121 x_87 + 391 x_88 + 79 x_89 + 137 x_90 + 292 x_91 + 197 x_92 + 119 x_93 + 551 x_94 + 72 x_95 + 328 x_96 + 486 x_97 + 231 x_98 + 217 x_99 <= 25000
b0: 588 x_0 + 438 x_1 + 202 x_2 + 399 x_3 + 560 x_4 + 246 x_5 + 196 x_6 + 502 x_7 + 21 x_8 + 309 x_9 + 169 x_10 + 550 x_11 + 369 x_12 + 50 x_13 + 401 x_14 + 76 x_15 + 528 x_16 + 937 x_17 + 11 x_18 + 402 x_19 + 402 x_20 + 317 x_21 + 226 x_22 + 111 x_23 + 54 x_24 + 447 x_25 + 127 x_26 + 411 x_27 + 709 x_28 + 136 x_29 + 966 x_30 + 366 x_31 + 757 x_32 + 370 x_33 + 841 x_34 + 209 x_35 + 120 x_36 + 315 x_37 + 35 x_38 + 870 x_39 + 300 x_40 + 657 x_41 + 1102 x_42 + 393 x_43 + 623 x_44 + 916 x_45 + 359 x_46 + 397 x_47 + 159 x_48 + 199 x_49 + 191 x_50 + 10 x_51 + 308 x_52 + 332 x_53 + 701 x_54 + 277 x_55 + 989 x_56 + 198 x_57 + 267 x_58 + 582 x_59 + 266 x_60 + 423 x_61 + 245 x_62 + 480 x_63 + 847 x_64 + 764 x_65 + 321 x_66 + 167 x_67 + 153 x_68 + 6 x_69 + 517 x_70 + 126 x_71 + 261 x_72 + 548 x_73 + 104 x_74 + 210 x_75 + 85 x_76 + 40 x_77 + 696 x_78 + 140 x_79 + 80 x_80 + 72 x_81 + 361 x_82 + 205 x_83 + 677 x_84 + 99 x_85 + 819 x_86 + 496 x_87 + 662 x_88 + 478 x_89 + 152 x_90 + 427 x_91 + 298 x_92 + 49 x_93 + 619 x_94 + 556 x_95 + 22 x_96 + 360 x_97 + 153 x_98 + 717 x_99 <= 25000
c0: 175 - x_0 >= 0
c1: 325 - x_1 >= 0
c2: 391 - x_2 >= 0
c3: 149 - x_3 >= 0
c4: 355 - x_4 >= 0
c5: 122 - x_5 >= 0
c6: 307 - x_6 >= 0
c7: 165 - x_7 >= 0
c8: 305 - x_8 >= 0
c9: 356 - x_9 >= 0
c10: 351 - x_10 >= 0
c11: 471 - x_11 >= 0
c12: 456 - x_12 >= 0
c13: 380 - x_13 >= 0
c14: 271 - x_14 >= 0
c15: 364 - x_15 >= 0
c16: 345 - x_16 >= 0
c17: 256 - x_17 >= 0
c18: 451 - x_18 >= 0
c19: 345 - x_19 >= 0
c20: 297 - x_20 >= 0
c21: 102 - x_21 >= 0
c22: 324 - x_22 >= 0
c23: 143 - x_23 >= 0
c24: 493 - x_24 >= 0
c25: 292 - x_25 >= 0
c26: 471 - x_26 >= 0
c27: 118 - x_27 >= 0
c28: 368 - x_28 >= 0
c29: 170 - x_29 >= 0
c30: 450 - x_30 >= 0
c31: 449 - x_31 >= 0
c32: 223 - x_32 >= 0
c33: 395 - x_33 >= 0
c34: 390 - x_34 >= 0
c35: 137 - x_35 >= 0
c36: 113 - x_36 >= 0
c37: 485 - x_37 >= 0
c38: 178 - x_38 >= 0
c39: 197 - x_39 >= 0
c40: 478 - x_40 >= 0
c41: 462 - x_41 >= 0
c42: 62 - x_42 >= 0
c43: 119 - x_43 >= 0
c44: 206 - x_44 >= 0
c45: 137 - x_45 >= 0
c46: 233 - x_46 >= 0
c47: 455 - x_47 >= 0
c48: 325 - x_48 >= 0
c49: 91 - x_49 >= 0
c50: 255 - x_50 >= 0
c51: 185 - x_51 >= 0
c52: 289 - x_52 >= 0
c53: 148 - x_53 >= 0
c54: 302 - x_54 >= 0
c55: 336 - x_55 >= 0
c56: 275 - x_56 >= 0
c57: 311 - x_57 >= 0
c58: 199 - x_58 >= 0
c59: 431 - x_59 >= 0
c60: 349 - x_60 >= 0
c61: 246 - x_61 >= 0
c62: 496 - x_62 >= 0
c63: 353 - x_63 >= 0
c64: 482 - x_64 >= 0
c65: 234 - x_65 >= 0
c66: 151 - x_66 >= 0
c67: 309 - x_67 >= 0
c68: 262 - x_68 >= 0
c69: 364 - x_69 >= 0
c70: 231 - x_70 >= 0
c71: 160 - x_71 >= 0
c72: 479 - x_72 >= 0
c73: 428 - x_73 >= 0
c74: 235 - x_74 >= 0
c75: 352 - x_75 >= 0
c76: 223 - x_76 >= 0
c77: 471 - x_77 >= 0
c78: 482 - x_78 >= 0
c79: 449 - x_79 >= 0
c80: 181 - x_80 >= 0
c81: 404 - x_81 >= 0
c82: 462 - x_82 >= 0
c83: 268 - x_83 >= 0
c84: 443 - x_84 >= 0
c85: 444 - x_85 >= 0
c86: 434 - x_86 >= 0
c87: 149 - x_87 >= 0
c88: 93 - x_88 >= 0
c89: 323 - x_89 >= 0
c90: 291 - x_90 >= 0
c91: 362 - x_91 >= 0
c92: 414 - x_92 >= 0
c93: 481 - x_93 >= 0
c94: 311 - x_94 >= 0
c95: 148 - x_95 >= 0
c96: 70 - x_96 >= 0
c97: 119 - x_97 >= 0
c98: 259 - x_98 >= 0
c99: 158 - x_99 >= 0





General

 x_0 x_1 x_2 x_3 x_4 x_5 x_6 x_7 x_8 x_9 x_10 x_11 x_12 x_13 x_14 x_15 x_16 x_17 x_18 x_19 x_20 x_21 x_22 x_23 x_24 x_25 x_26 x_27 x_28 x_29 x_30 x_31 x_32 x_33 x_34 x_35 x_36 x_37 x_38 x_39 x_40 x_41 x_42 x_43 x_44 x_45 x_46 x_47 x_48 x_49 x_50 x_51 x_52 x_53 x_54 x_55 x_56 x_57 x_58 x_59 x_60 x_61 x_62 x_63 x_64 x_65 x_66 x_67 x_68 x_69 x_70 x_71 x_72 x_73 x_74 x_75 x_76 x_77 x_78 x_79 x_80 x_81 x_82 x_83 x_84 x_85 x_86 x_87 x_88 x_89 x_90 x_91 x_92 x_93 x_94 x_95 x_96 x_97 x_98 x_99



End
